24563 36282
13497 65326
64449 48904
39658 41628
21041 11540
26175 36018
54441 33741
49240 46305
39468 62343
4578 40630
24513 23712
59991 23112
4317 13514
5719 28145
56123 62827
57653 41165
44030 8952
46455 2764
63829 6903
34077 45740
41101 51073
25110 30759
52222 57909
35830 48873
10013 62653
49401 35140
43802 2669
5968 55865
34635 13853
16345 47113
37361 24169
12084 24165
59786 63630
29840 37957
10627 60358
6915 37532
58368 19107
51391 58910
43743 60023
27594 1858
54606 56722
52522 32695
42012 488
42819 17172
30593 52269
